NAME 
OBJSENSE MAX
ROWS
 N  OBJ
 L  packing[0]
 L  packing[1]
 L  packing[2]
 L  packing[3]
 L  packing[4]
 L  packing[5]
 L  packing[6]
 L  packing[7]
 L  packing[8]
 L  packing[9]
 L  packing[10]
 L  packing[11]
 L  packing[12]
 L  packing[13]
 L  packing[14]
 L  packing[15]
 L  packing[16]
 L  packing[17]
 L  packing[18]
 L  packing[19]
 L  packing[20]
 L  packing[21]
 L  packing[22]
 L  packing[23]
 L  packing[24]
 L  packing[25]
 L  packing[26]
 L  packing[27]
 L  packing[28]
 L  packing[29]
 L  packing[30]
 L  packing[31]
 L  packing[32]
 L  packing[33]
 L  packing[34]
 L  packing[35]
 L  packing[36]
 L  packing[37]
 L  packing[38]
 L  packing[39]
 L  packing[40]
 L  packing[41]
 L  packing[42]
 L  packing[43]
 L  packing[44]
 L  packing[45]
 L  packing[46]
 L  packing[47]
 L  packing[48]
 L  packing[49]
 L  R58     
COLUMNS
    MARKER    'MARKER'                 'INTORG'
    x[1]      OBJ       147
    x[1]      packing[1]  64
    x[1]      packing[2]  33
    x[1]      packing[3]  147
    x[1]      packing[4]  176
    x[1]      packing[5]  45
    x[1]      packing[6]  42
    x[1]      packing[7]  73
    x[1]      packing[8]  86
    x[1]      packing[9]  60
    x[1]      packing[11]  87
    x[1]      packing[12]  191
    x[1]      packing[13]  54
    x[1]      packing[14]  156
    x[1]      packing[15]  145
    x[1]      packing[17]  62
    x[1]      packing[18]  82
    x[1]      packing[19]  116
    x[1]      packing[20]  187
    x[1]      packing[21]  2
    x[1]      packing[22]  196
    x[1]      packing[23]  32
    x[1]      packing[24]  182
    x[1]      packing[25]  93
    x[1]      packing[29]  8
    x[1]      packing[30]  87
    x[1]      packing[31]  112
    x[1]      packing[32]  10
    x[1]      packing[33]  138
    x[1]      packing[34]  151
    x[1]      packing[36]  66
    x[1]      packing[37]  164
    x[1]      packing[38]  168
    x[1]      packing[39]  64
    x[1]      packing[40]  8
    x[1]      packing[42]  60
    x[1]      packing[43]  11
    x[1]      packing[44]  124
    x[1]      packing[45]  47
    x[1]      packing[46]  88
    x[1]      packing[47]  126
    x[1]      packing[48]  37
    x[1]      packing[49]  91
    x[1]      R58       1
    x[2]      OBJ       177
    x[2]      packing[0]  23
    x[2]      packing[1]  44
    x[2]      packing[2]  129
    x[2]      packing[4]  128
    x[2]      packing[7]  19
    x[2]      packing[8]  118
    x[2]      packing[9]  179
    x[2]      packing[12]  49
    x[2]      packing[13]  84
    x[2]      packing[15]  16
    x[2]      packing[16]  173
    x[2]      packing[17]  151
    x[2]      packing[18]  140
    x[2]      packing[19]  47
    x[2]      packing[20]  47
    x[2]      packing[21]  149
    x[2]      packing[22]  44
    x[2]      packing[23]  82
    x[2]      packing[24]  8
    x[2]      packing[26]  191
    x[2]      packing[27]  125
    x[2]      packing[28]  152
    x[2]      packing[30]  34
    x[2]      packing[31]  114
    x[2]      packing[32]  149
    x[2]      packing[33]  129
    x[2]      packing[35]  134
    x[2]      packing[36]  46
    x[2]      packing[37]  145
    x[2]      packing[39]  37
    x[2]      packing[40]  118
    x[2]      packing[41]  124
    x[2]      packing[42]  113
    x[2]      packing[43]  67
    x[2]      packing[46]  35
    x[2]      packing[47]  132
    x[2]      packing[48]  116
    x[2]      packing[49]  183
    x[2]      R58       1
    x[3]      OBJ       25
    x[3]      packing[0]  193
    x[3]      packing[1]  87
    x[3]      packing[3]  72
    x[3]      packing[4]  174
    x[3]      packing[5]  97
    x[3]      packing[6]  50
    x[3]      packing[7]  55
    x[3]      packing[8]  4
    x[3]      packing[9]  11
    x[3]      packing[10]  193
    x[3]      packing[11]  139
    x[3]      packing[12]  173
    x[3]      packing[13]  196
    x[3]      packing[16]  198
    x[3]      packing[17]  32
    x[3]      packing[19]  89
    x[3]      packing[20]  99
    x[3]      packing[21]  69
    x[3]      packing[22]  71
    x[3]      packing[23]  159
    x[3]      packing[24]  2
    x[3]      packing[25]  54
    x[3]      packing[26]  129
    x[3]      packing[27]  183
    x[3]      packing[28]  154
    x[3]      packing[29]  25
    x[3]      packing[30]  145
    x[3]      packing[31]  109
    x[3]      packing[32]  108
    x[3]      packing[33]  198
    x[3]      packing[34]  13
    x[3]      packing[35]  184
    x[3]      packing[38]  39
    x[3]      packing[39]  104
    x[3]      packing[41]  98
    x[3]      packing[42]  42
    x[3]      packing[43]  153
    x[3]      packing[44]  103
    x[3]      packing[45]  142
    x[3]      packing[46]  171
    x[3]      packing[47]  130
    x[3]      packing[48]  154
    x[3]      packing[49]  93
    x[4]      OBJ       68
    x[4]      packing[0]  163
    x[4]      packing[2]  152
    x[4]      packing[3]  187
    x[4]      packing[4]  5
    x[4]      packing[5]  21
    x[4]      packing[8]  178
    x[4]      packing[9]  109
    x[4]      packing[10]  157
    x[4]      packing[11]  106
    x[4]      packing[13]  76
    x[4]      packing[14]  188
    x[4]      packing[15]  159
    x[4]      packing[16]  54
    x[4]      packing[17]  135
    x[4]      packing[18]  20
    x[4]      packing[19]  86
    x[4]      packing[20]  66
    x[4]      packing[24]  163
    x[4]      packing[25]  158
    x[4]      packing[26]  87
    x[4]      packing[27]  28
    x[4]      packing[29]  198
    x[4]      packing[30]  137
    x[4]      packing[32]  101
    x[4]      packing[33]  132
    x[4]      packing[35]  111
    x[4]      packing[37]  8
    x[4]      packing[38]  13
    x[4]      packing[39]  136
    x[4]      packing[40]  71
    x[4]      packing[42]  80
    x[4]      packing[43]  107
    x[4]      packing[44]  108
    x[4]      packing[45]  165
    x[4]      packing[46]  28
    x[4]      packing[47]  58
    x[4]      packing[48]  116
    x[4]      packing[49]  123
    x[5]      OBJ       179
    x[5]      packing[1]  40
    x[5]      packing[2]  195
    x[5]      packing[3]  69
    x[5]      packing[4]  9
    x[5]      packing[5]  190
    x[5]      packing[6]  163
    x[5]      packing[7]  157
    x[5]      packing[8]  53
    x[5]      packing[10]  56
    x[5]      packing[13]  67
    x[5]      packing[14]  168
    x[5]      packing[15]  77
    x[5]      packing[16]  46
    x[5]      packing[17]  16
    x[5]      packing[18]  168
    x[5]      packing[19]  193
    x[5]      packing[20]  191
    x[5]      packing[21]  123
    x[5]      packing[22]  177
    x[5]      packing[23]  107
    x[5]      packing[24]  1
    x[5]      packing[25]  199
    x[5]      packing[26]  142
    x[5]      packing[29]  11
    x[5]      packing[30]  160
    x[5]      packing[31]  3
    x[5]      packing[32]  168
    x[5]      packing[35]  35
    x[5]      packing[36]  88
    x[5]      packing[37]  115
    x[5]      packing[39]  52
    x[5]      packing[40]  105
    x[5]      packing[41]  38
    x[5]      packing[42]  159
    x[5]      packing[43]  121
    x[5]      packing[44]  54
    x[5]      packing[45]  21
    x[5]      packing[47]  46
    x[5]      packing[48]  195
    x[5]      packing[49]  59
    x[5]      R58       1
    x[6]      OBJ       46
    x[6]      packing[0]  120
    x[6]      packing[3]  167
    x[6]      packing[4]  151
    x[6]      packing[5]  186
    x[6]      packing[6]  196
    x[6]      packing[8]  97
    x[6]      packing[10]  163
    x[6]      packing[11]  150
    x[6]      packing[12]  64
    x[6]      packing[13]  178
    x[6]      packing[14]  47
    x[6]      packing[15]  196
    x[6]      packing[19]  32
    x[6]      packing[22]  114
    x[6]      packing[23]  188
    x[6]      packing[24]  127
    x[6]      packing[25]  115
    x[6]      packing[26]  183
    x[6]      packing[27]  7
    x[6]      packing[30]  118
    x[6]      packing[31]  22
    x[6]      packing[35]  121
    x[6]      packing[36]  87
    x[6]      packing[38]  109
    x[6]      packing[39]  22
    x[6]      packing[40]  199
    x[6]      packing[41]  130
    x[6]      packing[42]  177
    x[6]      packing[43]  171
    x[6]      packing[44]  92
    x[6]      packing[45]  176
    x[6]      packing[46]  148
    x[6]      packing[47]  4
    x[6]      packing[49]  20
    x[7]      OBJ       10
    x[7]      packing[2]  76
    x[7]      packing[3]  22
    x[7]      packing[4]  104
    x[7]      packing[5]  118
    x[7]      packing[6]  112
    x[7]      packing[7]  145
    x[7]      packing[8]  161
    x[7]      packing[10]  194
    x[7]      packing[11]  13
    x[7]      packing[12]  4
    x[7]      packing[13]  183
    x[7]      packing[14]  17
    x[7]      packing[15]  72
    x[7]      packing[18]  40
    x[7]      packing[19]  193
    x[7]      packing[20]  87
    x[7]      packing[22]  82
    x[7]      packing[24]  21
    x[7]      packing[25]  137
    x[7]      packing[26]  175
    x[7]      packing[27]  172
    x[7]      packing[28]  108
    x[7]      packing[30]  162
    x[7]      packing[31]  176
    x[7]      packing[33]  90
    x[7]      packing[35]  139
    x[7]      packing[36]  59
    x[7]      packing[37]  78
    x[7]      packing[38]  40
    x[7]      packing[39]  151
    x[7]      packing[40]  112
    x[7]      packing[42]  38
    x[7]      packing[43]  30
    x[7]      packing[45]  67
    x[7]      packing[46]  95
    x[7]      packing[47]  111
    x[7]      packing[48]  128
    x[7]      packing[49]  48
    x[8]      OBJ       195
    x[8]      packing[0]  131
    x[8]      packing[1]  27
    x[8]      packing[2]  141
    x[8]      packing[5]  39
    x[8]      packing[7]  161
    x[8]      packing[8]  1
    x[8]      packing[9]  198
    x[8]      packing[10]  8
    x[8]      packing[11]  151
    x[8]      packing[12]  192
    x[8]      packing[13]  95
    x[8]      packing[14]  189
    x[8]      packing[15]  112
    x[8]      packing[19]  52
    x[8]      packing[21]  79
    x[8]      packing[22]  1
    x[8]      packing[23]  154
    x[8]      packing[24]  136
    x[8]      packing[25]  66
    x[8]      packing[26]  101
    x[8]      packing[30]  150
    x[8]      packing[32]  128
    x[8]      packing[33]  5
    x[8]      packing[34]  100
    x[8]      packing[35]  108
    x[8]      packing[36]  93
    x[8]      packing[37]  26
    x[8]      packing[38]  87
    x[8]      packing[39]  135
    x[8]      packing[40]  19
    x[8]      packing[41]  136
    x[8]      packing[42]  151
    x[8]      packing[43]  188
    x[8]      packing[44]  33
    x[8]      packing[45]  94
    x[8]      packing[47]  84
    x[8]      R58       1
    x[9]      OBJ       174
    x[9]      packing[0]  188
    x[9]      packing[1]  74
    x[9]      packing[2]  192
    x[9]      packing[3]  66
    x[9]      packing[4]  63
    x[9]      packing[5]  24
    x[9]      packing[7]  65
    x[9]      packing[8]  101
    x[9]      packing[10]  90
    x[9]      packing[11]  29
    x[9]      packing[12]  2
    x[9]      packing[13]  25
    x[9]      packing[14]  148
    x[9]      packing[16]  175
    x[9]      packing[18]  141
    x[9]      packing[19]  127
    x[9]      packing[20]  108
    x[9]      packing[21]  90
    x[9]      packing[22]  60
    x[9]      packing[23]  59
    x[9]      packing[25]  70
    x[9]      packing[26]  5
    x[9]      packing[27]  100
    x[9]      packing[29]  131
    x[9]      packing[32]  97
    x[9]      packing[33]  180
    x[9]      packing[35]  85
    x[9]      packing[38]  135
    x[9]      packing[39]  172
    x[9]      packing[40]  3
    x[9]      packing[41]  31
    x[9]      packing[42]  179
    x[9]      packing[43]  46
    x[9]      packing[44]  187
    x[9]      packing[45]  12
    x[9]      packing[46]  56
    x[9]      packing[47]  57
    x[9]      packing[48]  158
    x[9]      packing[49]  70
    x[9]      R58       1
    x[10]     OBJ       123
    x[10]     packing[0]  69
    x[10]     packing[1]  5
    x[10]     packing[2]  110
    x[10]     packing[3]  102
    x[10]     packing[4]  19
    x[10]     packing[5]  109
    x[10]     packing[8]  49
    x[10]     packing[9]  180
    x[10]     packing[10]  123
    x[10]     packing[11]  86
    x[10]     packing[12]  38
    x[10]     packing[14]  37
    x[10]     packing[16]  99
    x[10]     packing[17]  150
    x[10]     packing[18]  159
    x[10]     packing[19]  145
    x[10]     packing[21]  173
    x[10]     packing[22]  48
    x[10]     packing[23]  81
    x[10]     packing[26]  190
    x[10]     packing[27]  29
    x[10]     packing[28]  99
    x[10]     packing[29]  91
    x[10]     packing[31]  110
    x[10]     packing[32]  120
    x[10]     packing[34]  40
    x[10]     packing[35]  182
    x[10]     packing[36]  164
    x[10]     packing[37]  192
    x[10]     packing[38]  17
    x[10]     packing[40]  165
    x[10]     packing[41]  48
    x[10]     packing[42]  145
    x[10]     packing[43]  52
    x[10]     packing[44]  170
    x[10]     packing[46]  109
    x[10]     packing[47]  120
    x[10]     packing[48]  186
    x[11]     OBJ       5
    x[11]     packing[0]  84
    x[11]     packing[2]  174
    x[11]     packing[3]  93
    x[11]     packing[4]  127
    x[11]     packing[5]  62
    x[11]     packing[6]  140
    x[11]     packing[7]  189
    x[11]     packing[10]  60
    x[11]     packing[11]  1
    x[11]     packing[12]  34
    x[11]     packing[13]  147
    x[11]     packing[14]  102
    x[11]     packing[15]  18
    x[11]     packing[16]  27
    x[11]     packing[17]  158
    x[11]     packing[18]  11
    x[11]     packing[19]  173
    x[11]     packing[20]  78
    x[11]     packing[21]  72
    x[11]     packing[22]  84
    x[11]     packing[24]  22
    x[11]     packing[26]  164
    x[11]     packing[27]  132
    x[11]     packing[28]  102
    x[11]     packing[29]  23
    x[11]     packing[30]  93
    x[11]     packing[31]  192
    x[11]     packing[32]  102
    x[11]     packing[33]  135
    x[11]     packing[34]  97
    x[11]     packing[35]  20
    x[11]     packing[36]  163
    x[11]     packing[37]  26
    x[11]     packing[39]  3
    x[11]     packing[41]  139
    x[11]     packing[42]  160
    x[11]     packing[43]  37
    x[11]     packing[44]  10
    x[11]     packing[45]  132
    x[11]     packing[46]  156
    x[11]     packing[47]  167
    x[11]     packing[48]  153
    x[11]     packing[49]  63
    x[12]     OBJ       71
    x[12]     packing[0]  122
    x[12]     packing[2]  103
    x[12]     packing[3]  12
    x[12]     packing[4]  53
    x[12]     packing[5]  70
    x[12]     packing[6]  85
    x[12]     packing[7]  119
    x[12]     packing[8]  119
    x[12]     packing[9]  183
    x[12]     packing[10]  17
    x[12]     packing[11]  119
    x[12]     packing[12]  156
    x[12]     packing[13]  148
    x[12]     packing[14]  130
    x[12]     packing[15]  64
    x[12]     packing[16]  57
    x[12]     packing[17]  168
    x[12]     packing[18]  140
    x[12]     packing[19]  13
    x[12]     packing[20]  36
    x[12]     packing[21]  175
    x[12]     packing[22]  102
    x[12]     packing[23]  175
    x[12]     packing[24]  195
    x[12]     packing[25]  112
    x[12]     packing[27]  119
    x[12]     packing[29]  41
    x[12]     packing[30]  54
    x[12]     packing[31]  10
    x[12]     packing[33]  31
    x[12]     packing[34]  24
    x[12]     packing[35]  62
    x[12]     packing[36]  19
    x[12]     packing[37]  102
    x[12]     packing[38]  161
    x[12]     packing[39]  136
    x[12]     packing[40]  103
    x[12]     packing[41]  83
    x[12]     packing[42]  108
    x[12]     packing[43]  173
    x[12]     packing[44]  134
    x[12]     packing[45]  55
    x[12]     packing[46]  51
    x[12]     packing[47]  51
    x[12]     packing[48]  35
    x[12]     packing[49]  67
    x[13]     OBJ       45
    x[13]     packing[0]  26
    x[13]     packing[1]  93
    x[13]     packing[2]  107
    x[13]     packing[3]  107
    x[13]     packing[4]  23
    x[13]     packing[6]  183
    x[13]     packing[7]  125
    x[13]     packing[8]  49
    x[13]     packing[9]  29
    x[13]     packing[10]  90
    x[13]     packing[11]  24
    x[13]     packing[12]  20
    x[13]     packing[13]  183
    x[13]     packing[15]  79
    x[13]     packing[17]  81
    x[13]     packing[19]  165
    x[13]     packing[21]  90
    x[13]     packing[22]  136
    x[13]     packing[23]  81
    x[13]     packing[25]  138
    x[13]     packing[26]  37
    x[13]     packing[27]  55
    x[13]     packing[29]  151
    x[13]     packing[30]  19
    x[13]     packing[31]  177
    x[13]     packing[32]  191
    x[13]     packing[33]  53
    x[13]     packing[34]  170
    x[13]     packing[35]  194
    x[13]     packing[36]  39
    x[13]     packing[37]  31
    x[13]     packing[38]  97
    x[13]     packing[39]  91
    x[13]     packing[40]  175
    x[13]     packing[41]  177
    x[13]     packing[43]  167
    x[13]     packing[44]  18
    x[13]     packing[45]  182
    x[13]     packing[47]  109
    x[13]     packing[49]  194
    x[13]     R58       1
    x[14]     OBJ       50
    x[14]     packing[0]  118
    x[14]     packing[2]  143
    x[14]     packing[3]  42
    x[14]     packing[4]  66
    x[14]     packing[6]  80
    x[14]     packing[7]  52
    x[14]     packing[8]  139
    x[14]     packing[9]  12
    x[14]     packing[10]  147
    x[14]     packing[11]  181
    x[14]     packing[12]  174
    x[14]     packing[13]  164
    x[14]     packing[17]  15
    x[14]     packing[18]  87
    x[14]     packing[19]  143
    x[14]     packing[20]  94
    x[14]     packing[21]  135
    x[14]     packing[22]  121
    x[14]     packing[23]  184
    x[14]     packing[24]  7
    x[14]     packing[25]  64
    x[14]     packing[26]  131
    x[14]     packing[27]  169
    x[14]     packing[29]  78
    x[14]     packing[31]  117
    x[14]     packing[32]  24
    x[14]     packing[33]  35
    x[14]     packing[34]  139
    x[14]     packing[35]  142
    x[14]     packing[37]  113
    x[14]     packing[38]  11
    x[14]     packing[39]  77
    x[14]     packing[42]  51
    x[14]     packing[43]  170
    x[14]     packing[44]  139
    x[14]     packing[45]  58
    x[14]     packing[46]  75
    x[14]     packing[47]  76
    x[14]     packing[48]  66
    x[15]     OBJ       71
    x[15]     packing[0]  4
    x[15]     packing[1]  178
    x[15]     packing[3]  75
    x[15]     packing[4]  121
    x[15]     packing[6]  59
    x[15]     packing[7]  17
    x[15]     packing[10]  93
    x[15]     packing[11]  31
    x[15]     packing[12]  170
    x[15]     packing[13]  66
    x[15]     packing[14]  86
    x[15]     packing[15]  46
    x[15]     packing[16]  132
    x[15]     packing[17]  84
    x[15]     packing[18]  53
    x[15]     packing[19]  161
    x[15]     packing[20]  56
    x[15]     packing[21]  152
    x[15]     packing[22]  4
    x[15]     packing[26]  33
    x[15]     packing[27]  59
    x[15]     packing[29]  65
    x[15]     packing[31]  151
    x[15]     packing[33]  149
    x[15]     packing[34]  149
    x[15]     packing[35]  185
    x[15]     packing[36]  183
    x[15]     packing[38]  86
    x[15]     packing[39]  50
    x[15]     packing[40]  169
    x[15]     packing[41]  42
    x[15]     packing[42]  188
    x[15]     packing[44]  129
    x[15]     packing[45]  4
    x[15]     packing[47]  137
    x[15]     packing[49]  171
    x[16]     OBJ       189
    x[16]     packing[0]  160
    x[16]     packing[1]  76
    x[16]     packing[3]  108
    x[16]     packing[5]  188
    x[16]     packing[7]  26
    x[16]     packing[8]  188
    x[16]     packing[12]  67
    x[16]     packing[13]  198
    x[16]     packing[14]  104
    x[16]     packing[15]  19
    x[16]     packing[17]  83
    x[16]     packing[18]  102
    x[16]     packing[19]  166
    x[16]     packing[20]  61
    x[16]     packing[21]  87
    x[16]     packing[24]  170
    x[16]     packing[25]  181
    x[16]     packing[26]  16
    x[16]     packing[27]  119
    x[16]     packing[29]  127
    x[16]     packing[30]  150
    x[16]     packing[31]  162
    x[16]     packing[32]  102
    x[16]     packing[34]  8
    x[16]     packing[36]  64
    x[16]     packing[37]  147
    x[16]     packing[39]  80
    x[16]     packing[41]  188
    x[16]     packing[42]  113
    x[16]     packing[43]  33
    x[16]     packing[44]  81
    x[16]     packing[47]  158
    x[16]     packing[48]  53
    x[16]     packing[49]  62
    x[16]     R58       1
    x[17]     OBJ       24
    x[17]     packing[0]  119
    x[17]     packing[1]  41
    x[17]     packing[2]  29
    x[17]     packing[3]  101
    x[17]     packing[4]  179
    x[17]     packing[6]  33
    x[17]     packing[7]  59
    x[17]     packing[8]  52
    x[17]     packing[9]  139
    x[17]     packing[11]  199
    x[17]     packing[12]  2
    x[17]     packing[14]  157
    x[17]     packing[15]  108
    x[17]     packing[17]  53
    x[17]     packing[19]  33
    x[17]     packing[20]  156
    x[17]     packing[21]  38
    x[17]     packing[22]  110
    x[17]     packing[23]  59
    x[17]     packing[24]  176
    x[17]     packing[27]  70
    x[17]     packing[28]  50
    x[17]     packing[30]  146
    x[17]     packing[31]  110
    x[17]     packing[32]  41
    x[17]     packing[34]  58
    x[17]     packing[36]  75
    x[17]     packing[37]  76
    x[17]     packing[39]  36
    x[17]     packing[40]  61
    x[17]     packing[42]  75
    x[17]     packing[43]  104
    x[17]     packing[44]  102
    x[17]     packing[45]  3
    x[17]     packing[46]  43
    x[17]     packing[47]  42
    x[17]     packing[48]  11
    x[17]     packing[49]  45
    x[18]     OBJ       167
    x[18]     packing[1]  56
    x[18]     packing[2]  13
    x[18]     packing[6]  108
    x[18]     packing[8]  88
    x[18]     packing[9]  73
    x[18]     packing[11]  96
    x[18]     packing[12]  11
    x[18]     packing[13]  10
    x[18]     packing[16]  195
    x[18]     packing[17]  66
    x[18]     packing[18]  183
    x[18]     packing[19]  195
    x[18]     packing[20]  26
    x[18]     packing[21]  135
    x[18]     packing[22]  188
    x[18]     packing[24]  43
    x[18]     packing[25]  114
    x[18]     packing[26]  120
    x[18]     packing[28]  153
    x[18]     packing[30]  59
    x[18]     packing[31]  95
    x[18]     packing[32]  26
    x[18]     packing[33]  143
    x[18]     packing[34]  160
    x[18]     packing[35]  32
    x[18]     packing[36]  51
    x[18]     packing[37]  170
    x[18]     packing[39]  89
    x[18]     packing[40]  77
    x[18]     packing[41]  15
    x[18]     packing[43]  6
    x[18]     packing[44]  148
    x[18]     packing[45]  10
    x[18]     packing[46]  43
    x[18]     packing[47]  140
    x[18]     packing[48]  129
    x[18]     packing[49]  134
    x[19]     OBJ       20
    x[19]     packing[0]  129
    x[19]     packing[1]  9
    x[19]     packing[2]  198
    x[19]     packing[3]  49
    x[19]     packing[5]  90
    x[19]     packing[6]  84
    x[19]     packing[7]  30
    x[19]     packing[9]  129
    x[19]     packing[11]  87
    x[19]     packing[12]  188
    x[19]     packing[13]  2
    x[19]     packing[14]  162
    x[19]     packing[15]  172
    x[19]     packing[16]  10
    x[19]     packing[17]  119
    x[19]     packing[18]  109
    x[19]     packing[19]  148
    x[19]     packing[20]  80
    x[19]     packing[21]  163
    x[19]     packing[23]  89
    x[19]     packing[25]  114
    x[19]     packing[26]  33
    x[19]     packing[27]  77
    x[19]     packing[28]  35
    x[19]     packing[29]  110
    x[19]     packing[31]  6
    x[19]     packing[32]  96
    x[19]     packing[34]  86
    x[19]     packing[35]  182
    x[19]     packing[37]  80
    x[19]     packing[39]  81
    x[19]     packing[41]  185
    x[19]     packing[42]  83
    x[19]     packing[43]  105
    x[19]     packing[44]  21
    x[19]     packing[45]  187
    x[19]     packing[46]  155
    x[19]     packing[47]  196
    x[19]     packing[49]  43
    x[20]     OBJ       131
    x[20]     packing[0]  184
    x[20]     packing[1]  150
    x[20]     packing[2]  85
    x[20]     packing[4]  156
    x[20]     packing[5]  152
    x[20]     packing[6]  198
    x[20]     packing[7]  63
    x[20]     packing[8]  41
    x[20]     packing[9]  121
    x[20]     packing[10]  3
    x[20]     packing[11]  194
    x[20]     packing[12]  181
    x[20]     packing[13]  56
    x[20]     packing[14]  63
    x[20]     packing[16]  123
    x[20]     packing[17]  88
    x[20]     packing[18]  55
    x[20]     packing[20]  1
    x[20]     packing[24]  154
    x[20]     packing[26]  124
    x[20]     packing[27]  186
    x[20]     packing[28]  165
    x[20]     packing[29]  66
    x[20]     packing[30]  97
    x[20]     packing[32]  124
    x[20]     packing[33]  192
    x[20]     packing[34]  184
    x[20]     packing[35]  85
    x[20]     packing[36]  133
    x[20]     packing[37]  98
    x[20]     packing[41]  120
    x[20]     packing[42]  83
    x[20]     packing[43]  46
    x[20]     packing[44]  151
    x[20]     packing[45]  29
    x[20]     packing[46]  33
    x[20]     packing[47]  49
    x[20]     packing[48]  93
    MARKER    'MARKER'                 'INTEND'
RHS
    RHS1      packing[0]  917
    RHS1      packing[1]  472
    RHS1      packing[2]  940
    RHS1      packing[3]  710
    RHS1      packing[4]  777
    RHS1      packing[5]  696
    RHS1      packing[6]  767
    RHS1      packing[7]  678
    RHS1      packing[8]  762
    RHS1      packing[9]  712
    RHS1      packing[10]  697
    RHS1      packing[11]  847
    RHS1      packing[12]  858
    RHS1      packing[13]  966
    RHS1      packing[14]  877
    RHS1      packing[15]  642
    RHS1      packing[16]  645
    RHS1      packing[17]  731
    RHS1      packing[18]  745
    RHS1      packing[19]  1139
    RHS1      packing[20]  687
    RHS1      packing[21]  866
    RHS1      packing[22]  769
    RHS1      packing[23]  725
    RHS1      packing[24]  704
    RHS1      packing[25]  808
    RHS1      packing[26]  931
    RHS1      packing[27]  815
    RHS1      packing[28]  509
    RHS1      packing[29]  563
    RHS1      packing[30]  806
    RHS1      packing[31]  833
    RHS1      packing[32]  794
    RHS1      packing[33]  805
    RHS1      packing[34]  690
    RHS1      packing[35]  1001
    RHS1      packing[36]  665
    RHS1      packing[37]  786
    RHS1      packing[38]  482
    RHS1      packing[39]  758
    RHS1      packing[40]  693
    RHS1      packing[41]  777
    RHS1      packing[42]  1003
    RHS1      packing[43]  894
    RHS1      packing[44]  902
    RHS1      packing[45]  692
    RHS1      packing[46]  643
    RHS1      packing[47]  997
    RHS1      packing[48]  815
    RHS1      packing[49]  733
    RHS1      R58       6
BOUNDS
 BV BND1      x[1]    
 BV BND1      x[2]    
 BV BND1      x[3]    
 BV BND1      x[4]    
 BV BND1      x[5]    
 BV BND1      x[6]    
 BV BND1      x[7]    
 BV BND1      x[8]    
 BV BND1      x[9]    
 BV BND1      x[10]   
 BV BND1      x[11]   
 BV BND1      x[12]   
 BV BND1      x[13]   
 BV BND1      x[14]   
 BV BND1      x[15]   
 BV BND1      x[16]   
 BV BND1      x[17]   
 BV BND1      x[18]   
 BV BND1      x[19]   
 BV BND1      x[20]   
ENDATA
